# Solution for model GasLib-40
# Objective value = 1.0736118557843442e+01
loadshed[innode_1] 0
loadshed[innode_2] 0
loadshed[innode_3] 0
loadshed[innode_4] 0
loadshed[innode_5] 0
loadshed[innode_6] 0
loadshed[innode_7] 0
loadshed[innode_8] 0
loadshed[source_1] -2.6733902586625091e-01
loadshed[source_2] -9.2318598561003773e-02
loadshed[source_3] 4.2756893882772684e-01
loadshed[sink_1] 0
loadshed[sink_2] 0
loadshed[sink_3] 0
loadshed[sink_4] 0
loadshed[sink_5] 0
loadshed[sink_6] 0
loadshed[sink_7] 0
loadshed[sink_8] 0
loadshed[sink_9] 0
loadshed[sink_10] 0
loadshed[sink_11] 0
loadshed[sink_12] 6.5647603920571362e-01
loadshed[sink_13] 0
loadshed[sink_14] 0
loadshed[sink_15] 0
loadshed[sink_16] 0
loadshed[sink_17] 0
loadshed[sink_18] 0
loadshed[sink_19] 0
loadshed[sink_20] 0
loadshed[sink_21] 0
loadshed[sink_22] 0
loadshed[sink_23] 0
loadshed[sink_24] 0
loadshed[sink_25] 0
loadshed[sink_26] 0
loadshed[sink_27] 0
loadshed[sink_28] 0
loadshed[sink_29] 0
flow[source_1,sink_3] 2.0035397863781390e+02
flow[innode_1,sink_16] 1.6354166666666970e+01
flow[innode_6,sink_13] 2.3983381197327411e+01
flow[sink_13,sink_14] 7.6292145306607431e+00
flow[sink_14,sink_10] -8.7249521360059248e+00
flow[sink_25,sink_26] 1.6887730230148122e+02
flow[sink_26,sink_9] 1.2774423926991639e+02
flow[sink_9,sink_18] 1.1139007260324972e+02
flow[sink_26,sink_4] 2.4778896364898230e+01
flow[sink_4,sink_20] 8.4247296982315447e+00
flow[sink_18,sink_6] 9.5035905936583049e+01
flow[sink_25,innode_8] -1.6764564530447751e+02
flow[sink_6,sink_7] 4.5973405936582367e+01
flow[sink_6,sink_22] 3.2708333333333641e+01
flow[sink_7,sink_24] 3.8326381442156560e+01
flow[sink_22,sink_1] 1.6354166666666970e+01
flow[sink_24,sink_21] 2.1972214775489892e+01
flow[sink_21,sink_12] 5.6180481088232250e+00
flow[sink_7,sink_5] -8.7071421722405944e+00
flow[sink_5,sink_17] -2.5061308838907166e+01
flow[sink_17,sink_4] 0
flow[sink_17,sink_8] -4.1415475505573866e+01
flow[sink_3,sink_23] 16.3541666666697
flow[sink_8,sink_20] -5.7769642172240538e+01
flow[sink_25,sink_20] 6.5699079140675622e+01
flow[sink_25,sink_15] -1.0726828400167398e+02
flow[sink_15,sink_29] -68.2185940059531
flow[sink_29,sink_28] 1.6354166666667879e+01
flow[sink_29,sink_2] 7.1758023329054254e+01
flow[sink_2,sink_15] 5.5403856662387625e+01
flow[sink_29,innode_7] -1.7268495066834203e+02
flow[innode_4,sink_19] 9.0495785469352768e+01
flow[sink_19,innode_3] 5.7787452136006323e+01
flow[innode_4,innode_5] 0
flow[sink_27,innode_5] 0
flow[sink_27,sink_19] -1.6354166666679703e+01
flow[sink_10,sink_11] 3.2708333333333641e+01
flow[sink_10,innode_2] 0
flow[sink_10,innode_3] -5.7787452136006323e+01
flow[innode_6,sink_25] -2.3983381197327411e+01
flow[sink_11,innode_1] 1.6354166666666970e+01
flow[sink_19,innode_2] 0
flow[source_3,innode_4] 9.0495785469352768e+01
flow[source_2,innode_7] 1.7268495066834203e+02
flow[sink_3,innode_8] 1.6764564530447751e+02
pressure[innode_1] 7.3990762439726524e+01
pressure[innode_2] 7.7347035146060918e+01
pressure[innode_3] 7.7219071377024832e+01
pressure[innode_4] 81.01325
pressure[innode_5] 7.6995905148917416e+01
pressure[innode_6] 7.3875655264217158e+01
pressure[innode_7] 81.01325
pressure[innode_8] 8.0343543187407818e+01
pressure[source_1] 81.01325
pressure[source_2] 81.01325
pressure[source_3] 81.01325
pressure[sink_1] 4.5666659535882133e+01
pressure[sink_2] 7.4576892347372734e+01
pressure[sink_3] 8.0343543187407818e+01
pressure[sink_4] 5.8831273024783719e+01
pressure[sink_5] 5.0757864206256791e+01
pressure[sink_6] 47.7677371462695
pressure[sink_7] 4.7136631866774295e+01
pressure[sink_8] 5.4187464051996976e+01
pressure[sink_9] 5.4335903620153246e+01
pressure[sink_10] 7.4142463747330069e+01
pressure[sink_11] 7.3990762439726524e+01
pressure[sink_12] 1.0132500000000007e+00
pressure[sink_13] 7.3743438891671630e+01
pressure[sink_14] 7.3729785762403623e+01
pressure[sink_15] 7.4396010966183368e+01
pressure[sink_16] 7.2969112604908844e+01
pressure[sink_17] 5.2624750566412104e+01
pressure[sink_18] 5.0305478793853787e+01
pressure[sink_19] 7.7347035146060918e+01
pressure[sink_20] 5.8213195681266292e+01
pressure[sink_21] 3.0124589940899895e+00
pressure[sink_22] 4.6730428678237139e+01
pressure[sink_23] 8.0178825175748031e+01
pressure[sink_24] 3.2557808581063181e+00
pressure[sink_25] 7.3875655264217158e+01
pressure[sink_26] 6.1981726039263577e+01
pressure[sink_27] 7.6995905148917416e+01
pressure[sink_28] 7.6099321788521692e+01
pressure[sink_29] 7.6394604062138868e+01
interdiction[source_1,sink_3] 0
interdiction[innode_1,sink_16] 0
interdiction[innode_6,sink_13] 0
interdiction[sink_13,sink_14] 0
interdiction[sink_14,sink_10] 0
interdiction[sink_25,sink_26] 0
interdiction[sink_26,sink_9] 0
interdiction[sink_9,sink_18] 0
interdiction[sink_26,sink_4] 0
interdiction[sink_4,sink_20] 0
interdiction[sink_18,sink_6] 0
interdiction[sink_25,innode_8] 0
interdiction[sink_6,sink_7] 0
interdiction[sink_6,sink_22] 0
interdiction[sink_7,sink_24] 0
interdiction[sink_22,sink_1] 0
interdiction[sink_24,sink_21] 0
interdiction[sink_21,sink_12] 0
interdiction[sink_7,sink_5] 0
interdiction[sink_5,sink_17] 0
interdiction[sink_17,sink_4] 1
interdiction[sink_17,sink_8] 0
interdiction[sink_3,sink_23] 0
interdiction[sink_8,sink_20] 0
interdiction[sink_25,sink_20] 0
interdiction[sink_25,sink_15] 0
interdiction[sink_15,sink_29] 0
interdiction[sink_29,sink_28] 0
interdiction[sink_29,sink_2] 0
interdiction[sink_2,sink_15] 0
interdiction[sink_29,innode_7] 0
interdiction[innode_4,sink_19] 0
interdiction[sink_19,innode_3] 0
interdiction[innode_4,innode_5] 1
interdiction[sink_27,innode_5] 0
interdiction[sink_27,sink_19] 0
interdiction[sink_10,sink_11] 0
interdiction[sink_10,innode_2] 1
interdiction[sink_10,innode_3] 0
interdiction[innode_6,sink_25] 0
interdiction[sink_11,innode_1] 0
interdiction[sink_19,innode_2] 0
interdiction[source_3,innode_4] 0
interdiction[source_2,innode_7] 0
interdiction[sink_3,innode_8] 0
WCcheckFlow[source_1,sink_3] 39
WCcheckFlow[innode_1,sink_16] 1
WCcheckFlow[innode_6,sink_13] 13
WCcheckFlow[sink_13,sink_14] 12
WCcheckFlow[sink_14,sink_10] 11
WCcheckFlow[sink_25,sink_26] 15
WCcheckFlow[sink_26,sink_9] 12
WCcheckFlow[sink_9,sink_18] 11
WCcheckFlow[sink_26,sink_4] 2
WCcheckFlow[sink_4,sink_20] 1
WCcheckFlow[sink_18,sink_6] 10
WCcheckFlow[sink_25,innode_8] -36
WCcheckFlow[sink_6,sink_7] 7
WCcheckFlow[sink_6,sink_22] 2
WCcheckFlow[sink_7,sink_24] 3
WCcheckFlow[sink_22,sink_1] 1
WCcheckFlow[sink_24,sink_21] 2
WCcheckFlow[sink_21,sink_12] 1
WCcheckFlow[sink_7,sink_5] 3
WCcheckFlow[sink_5,sink_17] 2
WCcheckFlow[sink_17,sink_4] 0
WCcheckFlow[sink_17,sink_8] 1
WCcheckFlow[sink_3,sink_23] 1
WCcheckFlow[sink_8,sink_20] 0
WCcheckFlow[sink_25,sink_20] 0
WCcheckFlow[sink_25,sink_15] 6
WCcheckFlow[sink_15,sink_29] 5
WCcheckFlow[sink_29,sink_28] 1
WCcheckFlow[sink_29,sink_2] 1
WCcheckFlow[sink_2,sink_15] 0
WCcheckFlow[sink_29,innode_7] 2
WCcheckFlow[innode_4,sink_19] -2
WCcheckFlow[sink_19,innode_3] -6
WCcheckFlow[innode_4,innode_5] 0
WCcheckFlow[sink_27,innode_5] 1
WCcheckFlow[sink_27,sink_19] -2
WCcheckFlow[sink_10,sink_11] 3
WCcheckFlow[sink_10,innode_2] 0
WCcheckFlow[sink_10,innode_3] 7
WCcheckFlow[innode_6,sink_25] -14
WCcheckFlow[sink_11,innode_1] 2
WCcheckFlow[sink_19,innode_2] 1
WCcheckFlow[source_3,innode_4] -1
WCcheckFlow[source_2,innode_7] -1
WCcheckFlow[sink_3,innode_8] 37
